p cnf 964 2475
51 -697 -1 0
-51 697 0
-51 1 0
52 -51 -698 0
-52 51 0
-52 698 0
53 -5 -699 0
-53 5 0
-53 699 0
54 -53 -700 0
-54 53 0
-54 700 0
55 -701 -702 0
-55 701 0
-55 702 0
56 -703 -7 0
-56 703 0
-56 7 0
57 -56 -9 0
-57 56 0
-57 9 0
58 -704 -55 0
-58 704 0
-58 55 0
59 -11 -705 0
-59 11 0
-59 705 0
60 -59 -706 0
-60 59 0
-60 706 0
61 -707 -58 0
-61 707 0
-61 58 0
62 -14 -708 0
-62 14 0
-62 708 0
63 -62 -709 0
-63 62 0
-63 709 0
64 -710 -61 0
-64 710 0
-64 61 0
65 -711 -16 0
-65 711 0
-65 16 0
66 -65 -712 0
-66 65 0
-66 712 0
67 -713 -64 0
-67 713 0
-67 64 0
68 -20 -19 0
-68 20 0
-68 19 0
69 -68 -712 0
-69 68 0
-69 712 0
70 -714 -67 0
-70 714 0
-70 67 0
71 -21 -705 0
-71 21 0
-71 705 0
72 -71 -22 0
-72 71 0
-72 22 0
73 -715 -70 0
-73 715 0
-73 70 0
74 -10 -9 0
-74 10 0
-74 9 0
75 -74 -699 0
-75 74 0
-75 699 0
76 -716 -73 0
-76 716 0
-76 73 0
77 -717 -20 0
-77 717 0
-77 20 0
78 -77 -718 0
-78 77 0
-78 718 0
79 -719 -76 0
-79 719 0
-79 76 0
80 -19 -705 0
-80 19 0
-80 705 0
81 -80 -720 0
-81 80 0
-81 720 0
82 -721 -79 0
-82 721 0
-82 79 0
83 -23 -705 0
-83 23 0
-83 705 0
84 -83 -699 0
-84 83 0
-84 699 0
85 -722 -82 0
-85 722 0
-85 82 0
86 -26 -16 0
-86 26 0
-86 16 0
87 -86 -697 0
-87 86 0
-87 697 0
88 -723 -85 0
-88 723 0
-88 85 0
89 -724 -23 0
-89 724 0
-89 23 0
90 -89 -15 0
-90 89 0
-90 15 0
91 -725 -88 0
-91 725 0
-91 88 0
92 -29 -726 0
-92 29 0
-92 726 0
93 -92 -2 0
-93 92 0
-93 2 0
94 -727 -91 0
-94 727 0
-94 91 0
95 -728 -17 0
-95 728 0
-95 17 0
96 -95 -698 0
-96 95 0
-96 698 0
97 -729 -94 0
-97 729 0
-97 94 0
98 -32 -31 0
-98 32 0
-98 31 0
99 -98 -12 0
-99 98 0
-99 12 0
100 -730 -97 0
-100 730 0
-100 97 0
101 -31 -731 0
-101 31 0
-101 731 0
102 -101 -33 0
-102 101 0
-102 33 0
103 -732 -100 0
-103 732 0
-103 100 0
104 -733 -705 0
-104 733 0
-104 705 0
105 -104 -24 0
-105 104 0
-105 24 0
106 -734 -103 0
-106 734 0
-106 103 0
107 -35 -31 0
-107 35 0
-107 31 0
108 -107 -6 0
-108 107 0
-108 6 0
109 -735 -106 0
-109 735 0
-109 106 0
110 -21 -20 0
-110 21 0
-110 20 0
111 -110 -9 0
-111 110 0
-111 9 0
112 -736 -109 0
-112 736 0
-112 109 0
113 -737 -738 0
-113 737 0
-113 738 0
114 -113 -720 0
-114 113 0
-114 720 0
115 -739 -112 0
-115 739 0
-115 112 0
116 -26 -697 0
-116 26 0
-116 697 0
117 -116 -36 0
-117 116 0
-117 36 0
118 -740 -115 0
-118 740 0
-118 115 0
119 -23 -4 0
-119 23 0
-119 4 0
120 -119 -33 0
-120 119 0
-120 33 0
121 -741 -118 0
-121 741 0
-121 118 0
122 -724 -19 0
-122 724 0
-122 19 0
123 -122 -6 0
-123 122 0
-123 6 0
124 -742 -121 0
-124 742 0
-124 121 0
125 -37 -7 0
-125 37 0
-125 7 0
126 -125 -38 0
-126 125 0
-126 38 0
127 -743 -124 0
-127 743 0
-127 124 0
128 -744 -745 0
-128 744 0
-128 745 0
129 -128 -746 0
-129 128 0
-129 746 0
130 -747 -127 0
-130 747 0
-130 127 0
131 -35 -34 0
-131 35 0
-131 34 0
132 -131 -748 0
-132 131 0
-132 748 0
133 -749 -130 0
-133 749 0
-133 130 0
134 -27 -718 0
-134 27 0
-134 718 0
135 -134 -750 0
-135 134 0
-135 750 0
136 -751 -133 0
-136 751 0
-136 133 0
137 -20 -738 0
-137 20 0
-137 738 0
138 -137 -3 0
-138 137 0
-138 3 0
139 -752 -136 0
-139 752 0
-139 136 0
140 -39 -23 0
-140 39 0
-140 23 0
141 -140 -4 0
-141 140 0
-141 4 0
142 -753 -139 0
-142 753 0
-142 139 0
143 -754 -703 0
-143 754 0
-143 703 0
144 -143 -9 0
-144 143 0
-144 9 0
145 -755 -142 0
-145 755 0
-145 142 0
146 -38 -14 0
-146 38 0
-146 14 0
147 -146 -18 0
-147 146 0
-147 18 0
148 -756 -145 0
-148 756 0
-148 145 0
149 -25 -13 0
-149 25 0
-149 13 0
150 -149 -757 0
-150 149 0
-150 757 0
151 -758 -148 0
-151 758 0
-151 148 0
152 -44 -19 0
-152 44 0
-152 19 0
153 -152 -706 0
-153 152 0
-153 706 0
154 -759 -151 0
-154 759 0
-154 151 0
155 -44 -21 0
-155 44 0
-155 21 0
156 -155 -15 0
-156 155 0
-156 15 0
157 -760 -154 0
-157 760 0
-157 154 0
158 -19 -16 0
-158 19 0
-158 16 0
159 -158 -761 0
-159 158 0
-159 761 0
160 -762 -157 0
-160 762 0
-160 157 0
161 -44 -27 0
-161 44 0
-161 27 0
162 -161 -718 0
-162 161 0
-162 718 0
163 -763 -160 0
-163 763 0
-163 160 0
164 -31 -764 0
-164 31 0
-164 764 0
165 -164 -700 0
-165 164 0
-165 700 0
166 -765 -163 0
-166 765 0
-166 163 0
167 -766 -737 0
-167 766 0
-167 737 0
168 -167 -6 0
-168 167 0
-168 6 0
169 -767 -166 0
-169 767 0
-169 166 0
170 -717 -19 0
-170 717 0
-170 19 0
171 -170 -720 0
-171 170 0
-171 720 0
172 -768 -169 0
-172 768 0
-172 169 0
173 -706 -7 0
-173 706 0
-173 7 0
174 -173 -46 0
-174 173 0
-174 46 0
175 -769 -172 0
-175 769 0
-175 172 0
176 -46 -25 0
-176 46 0
-176 25 0
177 -176 -770 0
-177 176 0
-177 770 0
178 -771 -175 0
-178 771 0
-178 175 0
179 -27 -712 0
-179 27 0
-179 712 0
180 -179 -43 0
-180 179 0
-180 43 0
181 -772 -178 0
-181 772 0
-181 178 0
182 -27 -15 0
-182 27 0
-182 15 0
183 -182 -761 0
-183 182 0
-183 761 0
184 -773 -181 0
-184 773 0
-184 181 0
185 -744 -737 0
-185 744 0
-185 737 0
186 -185 -774 0
-186 185 0
-186 774 0
187 -775 -184 0
-187 775 0
-187 184 0
188 -776 -19 0
-188 776 0
-188 19 0
189 -188 -706 0
-189 188 0
-189 706 0
190 -777 -187 0
-190 777 0
-190 187 0
191 -36 -30 0
-191 36 0
-191 30 0
192 -191 -43 0
-192 191 0
-192 43 0
193 -778 -190 0
-193 778 0
-193 190 0
194 -748 -699 0
-194 748 0
-194 699 0
195 -194 -761 0
-195 194 0
-195 761 0
196 -779 -193 0
-196 779 0
-196 193 0
197 -780 -781 0
-197 780 0
-197 781 0
198 -197 -4 0
-198 197 0
-198 4 0
199 -782 -196 0
-199 782 0
-199 196 0
200 -731 -12 0
-200 731 0
-200 12 0
201 -200 -38 0
-201 200 0
-201 38 0
202 -783 -199 0
-202 783 0
-202 199 0
203 -24 -12 0
-203 24 0
-203 12 0
204 -203 -712 0
-204 203 0
-204 712 0
205 -784 -202 0
-205 784 0
-205 202 0
206 -785 -738 0
-206 785 0
-206 738 0
207 -206 -733 0
-207 206 0
-207 733 0
208 -786 -205 0
-208 786 0
-208 205 0
209 -21 -698 0
-209 21 0
-209 698 0
210 -209 -720 0
-210 209 0
-210 720 0
211 -787 -208 0
-211 787 0
-211 208 0
212 -698 -2 0
-212 698 0
-212 2 0
213 -212 -700 0
-213 212 0
-213 700 0
214 -788 -211 0
-214 788 0
-214 211 0
215 -46 -717 0
-215 46 0
-215 717 0
216 -215 -789 0
-216 215 0
-216 789 0
217 -790 -214 0
-217 790 0
-217 214 0
218 -39 -718 0
-218 39 0
-218 718 0
219 -218 -4 0
-219 218 0
-219 4 0
220 -791 -217 0
-220 791 0
-220 217 0
221 -744 -724 0
-221 744 0
-221 724 0
222 -221 -38 0
-222 221 0
-222 38 0
223 -792 -220 0
-223 792 0
-223 220 0
224 -34 -699 0
-224 34 0
-224 699 0
225 -224 -793 0
-225 224 0
-225 793 0
226 -794 -223 0
-226 794 0
-226 223 0
227 -26 -708 0
-227 26 0
-227 708 0
228 -227 -764 0
-228 227 0
-228 764 0
229 -795 -226 0
-229 795 0
-229 226 0
230 -38 -766 0
-230 38 0
-230 766 0
231 -230 -43 0
-231 230 0
-231 43 0
232 -796 -229 0
-232 796 0
-232 229 0
233 -29 -774 0
-233 29 0
-233 774 0
234 -233 -706 0
-234 233 0
-234 706 0
235 -797 -232 0
-235 797 0
-235 232 0
236 -754 -774 0
-236 754 0
-236 774 0
237 -236 -34 0
-237 236 0
-237 34 0
238 -798 -235 0
-238 798 0
-238 235 0
239 -29 -697 0
-239 29 0
-239 697 0
240 -239 -4 0
-240 239 0
-240 4 0
241 -799 -238 0
-241 799 0
-241 238 0
242 -26 -3 0
-242 26 0
-242 3 0
243 -242 -720 0
-243 242 0
-243 720 0
244 -800 -241 0
-244 800 0
-244 241 0
245 -724 -7 0
-245 724 0
-245 7 0
246 -245 -38 0
-246 245 0
-246 38 0
247 -801 -244 0
-247 801 0
-247 244 0
248 -709 -7 0
-248 709 0
-248 7 0
249 -248 -720 0
-249 248 0
-249 720 0
250 -802 -247 0
-250 802 0
-250 247 0
251 -744 -780 0
-251 744 0
-251 780 0
252 -251 -11 0
-252 251 0
-252 11 0
253 -803 -250 0
-253 803 0
-253 250 0
254 -44 -5 0
-254 44 0
-254 5 0
255 -254 -804 0
-255 254 0
-255 804 0
256 -805 -253 0
-256 805 0
-256 253 0
257 -39 -711 0
-257 39 0
-257 711 0
258 -257 -40 0
-258 257 0
-258 40 0
259 -806 -256 0
-259 806 0
-259 256 0
260 -737 -10 0
-260 737 0
-260 10 0
261 -260 -720 0
-261 260 0
-261 720 0
262 -807 -259 0
-262 807 0
-262 259 0
263 -37 -3 0
-263 37 0
-263 3 0
264 -263 -40 0
-264 263 0
-264 40 0
265 -808 -262 0
-265 808 0
-265 262 0
266 -19 -738 0
-266 19 0
-266 738 0
267 -266 -699 0
-267 266 0
-267 699 0
268 -809 -265 0
-268 809 0
-268 265 0
269 -32 -726 0
-269 32 0
-269 726 0
270 -269 -810 0
-270 269 0
-270 810 0
271 -811 -268 0
-271 811 0
-271 268 0
272 -812 -774 0
-272 812 0
-272 774 0
273 -272 -793 0
-273 272 0
-273 793 0
274 -813 -271 0
-274 813 0
-274 271 0
275 -227 -776 0
-275 227 0
-275 776 0
276 -814 -274 0
-276 814 0
-276 274 0
277 -30 -14 0
-277 30 0
-277 14 0
278 -277 -47 0
-278 277 0
-278 47 0
279 -815 -276 0
-279 815 0
-279 276 0
280 -746 -709 0
-280 746 0
-280 709 0
281 -280 -770 0
-281 280 0
-281 770 0
282 -816 -279 0
-282 816 0
-282 279 0
283 -24 -19 0
-283 24 0
-283 19 0
284 -283 -817 0
-284 283 0
-284 817 0
285 -818 -282 0
-285 818 0
-285 282 0
286 -15 -817 0
-286 15 0
-286 817 0
287 -286 -720 0
-287 286 0
-287 720 0
288 -819 -285 0
-288 819 0
-288 285 0
289 -820 -23 0
-289 820 0
-289 23 0
290 -289 -9 0
-290 289 0
-290 9 0
291 -821 -288 0
-291 821 0
-291 288 0
292 -822 -718 0
-292 822 0
-292 718 0
293 -292 -46 0
-293 292 0
-293 46 0
294 -823 -291 0
-294 823 0
-294 291 0
295 -774 -13 0
-295 774 0
-295 13 0
296 -295 -8 0
-296 295 0
-296 8 0
297 -824 -294 0
-297 824 0
-297 294 0
298 -766 -27 0
-298 766 0
-298 27 0
299 -298 -49 0
-299 298 0
-299 49 0
300 -825 -297 0
-300 825 0
-300 297 0
301 -31 -780 0
-301 31 0
-301 780 0
302 -301 -34 0
-302 301 0
-302 34 0
303 -826 -300 0
-303 826 0
-303 300 0
304 -39 -7 0
-304 39 0
-304 7 0
305 -304 -738 0
-305 304 0
-305 738 0
306 -827 -303 0
-306 827 0
-306 303 0
307 -728 -13 0
-307 728 0
-307 13 0
308 -307 -817 0
-308 307 0
-308 817 0
309 -828 -306 0
-309 828 0
-309 306 0
310 -820 -717 0
-310 820 0
-310 717 0
311 -310 -699 0
-311 310 0
-311 699 0
312 -829 -309 0
-312 829 0
-312 309 0
313 -21 -13 0
-313 21 0
-313 13 0
314 -313 -41 0
-314 313 0
-314 41 0
315 -830 -312 0
-315 830 0
-315 312 0
316 -28 -717 0
-316 28 0
-316 717 0
317 -316 -785 0
-317 316 0
-317 785 0
318 -831 -315 0
-318 831 0
-318 315 0
319 -34 -11 0
-319 34 0
-319 11 0
320 -319 -720 0
-320 319 0
-320 720 0
321 -832 -318 0
-321 832 0
-321 318 0
322 -42 -34 0
-322 42 0
-322 34 0
323 -322 -810 0
-323 322 0
-323 810 0
324 -833 -321 0
-324 833 0
-324 321 0
325 -32 -20 0
-325 32 0
-325 20 0
326 -325 -804 0
-326 325 0
-326 804 0
327 -834 -324 0
-327 834 0
-327 324 0
328 -744 -698 0
-328 744 0
-328 698 0
329 -328 -5 0
-329 328 0
-329 5 0
330 -835 -327 0
-330 835 0
-330 327 0
331 -728 -1 0
-331 728 0
-331 1 0
332 -331 -836 0
-332 331 0
-332 836 0
333 -837 -330 0
-333 837 0
-333 330 0
334 -25 -10 0
-334 25 0
-334 10 0
335 -334 -43 0
-335 334 0
-335 43 0
336 -838 -333 0
-336 838 0
-336 333 0
337 -41 -13 0
-337 41 0
-337 13 0
338 -337 -14 0
-338 337 0
-338 14 0
339 -839 -336 0
-339 839 0
-339 336 0
340 -812 -20 0
-340 812 0
-340 20 0
341 -340 -2 0
-341 340 0
-341 2 0
342 -840 -339 0
-342 840 0
-342 339 0
343 -32 -26 0
-343 32 0
-343 26 0
344 -343 -841 0
-344 343 0
-344 841 0
345 -842 -342 0
-345 842 0
-345 342 0
346 -46 -33 0
-346 46 0
-346 33 0
347 -346 -49 0
-347 346 0
-347 49 0
348 -843 -345 0
-348 843 0
-348 345 0
349 -731 -698 0
-349 731 0
-349 698 0
350 -349 -25 0
-350 349 0
-350 25 0
351 -844 -348 0
-351 844 0
-351 348 0
352 -711 -703 0
-352 711 0
-352 703 0
353 -352 -18 0
-353 352 0
-353 18 0
354 -845 -351 0
-354 845 0
-354 351 0
355 -33 -28 0
-355 33 0
-355 28 0
356 -355 -817 0
-356 355 0
-356 817 0
357 -846 -354 0
-357 846 0
-357 354 0
358 -728 -781 0
-358 728 0
-358 781 0
359 -358 -841 0
-359 358 0
-359 841 0
360 -847 -357 0
-360 847 0
-360 357 0
361 -45 -745 0
-361 45 0
-361 745 0
362 -361 -47 0
-362 361 0
-362 47 0
363 -848 -360 0
-363 848 0
-363 360 0
364 -26 -2 0
-364 26 0
-364 2 0
365 -364 -711 0
-365 364 0
-365 711 0
366 -849 -363 0
-366 849 0
-366 363 0
367 -780 -7 0
-367 780 0
-367 7 0
368 -367 -841 0
-368 367 0
-368 841 0
369 -850 -366 0
-369 850 0
-369 366 0
370 -28 -10 0
-370 28 0
-370 10 0
371 -370 -45 0
-371 370 0
-371 45 0
372 -851 -369 0
-372 851 0
-372 369 0
373 -30 -852 0
-373 30 0
-373 852 0
374 -373 -822 0
-374 373 0
-374 822 0
375 -853 -372 0
-375 853 0
-375 372 0
376 -731 -780 0
-376 731 0
-376 780 0
377 -376 -697 0
-377 376 0
-377 697 0
378 -854 -375 0
-378 854 0
-378 375 0
379 -754 -33 0
-379 754 0
-379 33 0
380 -379 -50 0
-380 379 0
-380 50 0
381 -855 -378 0
-381 855 0
-381 378 0
382 -724 -11 0
-382 724 0
-382 11 0
383 -382 -764 0
-383 382 0
-383 764 0
384 -856 -381 0
-384 856 0
-384 381 0
385 -717 -8 0
-385 717 0
-385 8 0
386 -385 -733 0
-386 385 0
-386 733 0
387 -857 -384 0
-387 857 0
-387 384 0
388 -731 -10 0
-388 731 0
-388 10 0
389 -388 -43 0
-389 388 0
-389 43 0
390 -858 -387 0
-390 858 0
-390 387 0
391 -17 -10 0
-391 17 0
-391 10 0
392 -391 -810 0
-392 391 0
-392 810 0
393 -859 -390 0
-393 859 0
-393 390 0
394 -29 -852 0
-394 29 0
-394 852 0
395 -394 -698 0
-395 394 0
-395 698 0
396 -860 -393 0
-396 860 0
-396 393 0
397 -817 -703 0
-397 817 0
-397 703 0
398 -397 -761 0
-398 397 0
-398 761 0
399 -861 -396 0
-399 861 0
-399 396 0
400 -21 -2 0
-400 21 0
-400 2 0
401 -400 -5 0
-401 400 0
-401 5 0
402 -862 -399 0
-402 862 0
-402 399 0
403 -23 -737 0
-403 23 0
-403 737 0
404 -403 -750 0
-404 403 0
-404 750 0
405 -863 -402 0
-405 863 0
-405 402 0
406 -39 -698 0
-406 39 0
-406 698 0
407 -406 -47 0
-407 406 0
-407 47 0
408 -864 -405 0
-408 864 0
-408 405 0
409 -744 -705 0
-409 744 0
-409 705 0
410 -409 -836 0
-410 409 0
-410 836 0
411 -865 -408 0
-411 865 0
-411 408 0
412 -726 -21 0
-412 726 0
-412 21 0
413 -412 -41 0
-413 412 0
-413 41 0
414 -866 -411 0
-414 866 0
-414 411 0
415 -820 -5 0
-415 820 0
-415 5 0
416 -415 -770 0
-416 415 0
-416 770 0
417 -867 -414 0
-417 867 0
-417 414 0
418 -32 -19 0
-418 32 0
-418 19 0
419 -418 -40 0
-419 418 0
-419 40 0
420 -868 -417 0
-420 868 0
-420 417 0
421 -44 -13 0
-421 44 0
-421 13 0
422 -421 -711 0
-422 421 0
-422 711 0
423 -869 -420 0
-423 869 0
-423 420 0
424 -37 -737 0
-424 37 0
-424 737 0
425 -424 -720 0
-425 424 0
-425 720 0
426 -870 -423 0
-426 870 0
-426 423 0
427 -35 -733 0
-427 35 0
-427 733 0
428 -427 -709 0
-428 427 0
-428 709 0
429 -871 -426 0
-429 871 0
-429 426 0
430 -32 -1 0
-430 32 0
-430 1 0
431 -430 -43 0
-431 430 0
-431 43 0
432 -872 -429 0
-432 872 0
-432 429 0
433 -42 -737 0
-433 42 0
-433 737 0
434 -433 -766 0
-434 433 0
-434 766 0
435 -873 -432 0
-435 873 0
-435 432 0
436 -39 -709 0
-436 39 0
-436 709 0
437 -436 -25 0
-437 436 0
-437 25 0
438 -874 -435 0
-438 874 0
-438 435 0
439 -38 -4 0
-439 38 0
-439 4 0
440 -439 -45 0
-440 439 0
-440 45 0
441 -875 -438 0
-441 875 0
-441 438 0
442 -32 -774 0
-442 32 0
-442 774 0
443 -442 -706 0
-443 442 0
-443 706 0
444 -876 -441 0
-444 876 0
-444 441 0
445 -39 -781 0
-445 39 0
-445 781 0
446 -445 -32 0
-446 445 0
-446 32 0
447 -877 -444 0
-447 877 0
-447 444 0
448 -39 -726 0
-448 39 0
-448 726 0
449 -448 -4 0
-449 448 0
-449 4 0
450 -878 -447 0
-450 878 0
-450 447 0
451 -810 -23 0
-451 810 0
-451 23 0
452 -451 -15 0
-452 451 0
-452 15 0
453 -879 -450 0
-453 879 0
-453 450 0
454 -724 -708 0
-454 724 0
-454 708 0
455 -454 -5 0
-455 454 0
-455 5 0
456 -880 -453 0
-456 880 0
-456 453 0
457 -32 -2 0
-457 32 0
-457 2 0
458 -457 -698 0
-458 457 0
-458 698 0
459 -881 -456 0
-459 881 0
-459 456 0
460 -764 -697 0
-460 764 0
-460 697 0
461 -460 -38 0
-461 460 0
-461 38 0
462 -882 -459 0
-462 882 0
-462 459 0
463 -95 -6 0
-463 95 0
-463 6 0
464 -883 -462 0
-464 883 0
-464 462 0
465 -42 -812 0
-465 42 0
-465 812 0
466 -465 -49 0
-466 465 0
-466 49 0
467 -884 -464 0
-467 884 0
-467 464 0
468 -27 -17 0
-468 27 0
-468 17 0
469 -468 -789 0
-469 468 0
-469 789 0
470 -885 -467 0
-470 885 0
-470 467 0
471 -27 -26 0
-471 27 0
-471 26 0
472 -471 -731 0
-472 471 0
-472 731 0
473 -886 -470 0
-473 886 0
-473 470 0
474 -776 -38 0
-474 776 0
-474 38 0
475 -474 -761 0
-475 474 0
-475 761 0
476 -887 -473 0
-476 887 0
-476 473 0
477 -39 -697 0
-477 39 0
-477 697 0
478 -477 -38 0
-478 477 0
-478 38 0
479 -888 -476 0
-479 888 0
-479 476 0
480 -761 -737 0
-480 761 0
-480 737 0
481 -480 -50 0
-481 480 0
-481 50 0
482 -889 -479 0
-482 889 0
-482 479 0
483 -39 -738 0
-483 39 0
-483 738 0
484 -483 -24 0
-484 483 0
-484 24 0
485 -890 -482 0
-485 890 0
-485 482 0
486 -709 -708 0
-486 709 0
-486 708 0
487 -486 -770 0
-487 486 0
-487 770 0
488 -891 -485 0
-488 891 0
-488 485 0
489 -726 -5 0
-489 726 0
-489 5 0
490 -489 -46 0
-490 489 0
-490 46 0
491 -892 -488 0
-491 892 0
-491 488 0
492 -785 -731 0
-492 785 0
-492 731 0
493 -492 -738 0
-493 492 0
-493 738 0
494 -893 -491 0
-494 893 0
-494 491 0
495 -39 -26 0
-495 39 0
-495 26 0
496 -495 -48 0
-496 495 0
-496 48 0
497 -894 -494 0
-497 894 0
-497 494 0
498 -745 -6 0
-498 745 0
-498 6 0
499 -498 -804 0
-499 498 0
-499 804 0
500 -895 -497 0
-500 895 0
-500 497 0
501 -7 -2 0
-501 7 0
-501 2 0
502 -501 -11 0
-502 501 0
-502 11 0
503 -896 -500 0
-503 896 0
-503 500 0
504 -728 -841 0
-504 728 0
-504 841 0
505 -504 -711 0
-505 504 0
-505 711 0
506 -897 -503 0
-506 897 0
-506 503 0
507 -11 -9 0
-507 11 0
-507 9 0
508 -507 -38 0
-508 507 0
-508 38 0
509 -898 -506 0
-509 898 0
-509 506 0
510 -83 -50 0
-510 83 0
-510 50 0
511 -899 -509 0
-511 899 0
-511 509 0
512 -776 -900 0
-512 776 0
-512 900 0
513 -512 -32 0
-513 512 0
-513 32 0
514 -901 -511 0
-514 901 0
-514 511 0
515 -23 -841 0
-515 23 0
-515 841 0
516 -515 -18 0
-516 515 0
-516 18 0
517 -902 -514 0
-517 902 0
-517 514 0
518 -717 -16 0
-518 717 0
-518 16 0
519 -518 -34 0
-519 518 0
-519 34 0
520 -903 -517 0
-520 903 0
-520 517 0
521 -750 -27 0
-521 750 0
-521 27 0
522 -521 -46 0
-522 521 0
-522 46 0
523 -904 -520 0
-523 904 0
-523 520 0
524 -28 -718 0
-524 28 0
-524 718 0
525 -524 -748 0
-525 524 0
-525 748 0
526 -905 -523 0
-526 905 0
-526 523 0
527 -35 -22 0
-527 35 0
-527 22 0
528 -527 -804 0
-528 527 0
-528 804 0
529 -906 -526 0
-529 906 0
-529 526 0
530 -754 -750 0
-530 754 0
-530 750 0
531 -530 -22 0
-531 530 0
-531 22 0
532 -907 -529 0
-532 907 0
-532 529 0
533 -746 -708 0
-533 746 0
-533 708 0
534 -533 -720 0
-534 533 0
-534 720 0
535 -908 -532 0
-535 908 0
-535 532 0
536 -812 -726 0
-536 812 0
-536 726 0
537 -536 -793 0
-537 536 0
-537 793 0
538 -909 -535 0
-538 909 0
-538 535 0
539 -11 -697 0
-539 11 0
-539 697 0
540 -539 -770 0
-540 539 0
-540 770 0
541 -910 -538 0
-541 910 0
-541 538 0
542 -728 -29 0
-542 728 0
-542 29 0
543 -542 -50 0
-543 542 0
-543 50 0
544 -911 -541 0
-544 911 0
-544 541 0
545 -16 -7 0
-545 16 0
-545 7 0
546 -545 -9 0
-546 545 0
-546 9 0
547 -912 -544 0
-547 912 0
-547 544 0
548 -17 -12 0
-548 17 0
-548 12 0
549 -548 -748 0
-549 548 0
-549 748 0
550 -913 -547 0
-550 913 0
-550 547 0
551 -31 -30 0
-551 31 0
-551 30 0
552 -551 -36 0
-552 551 0
-552 36 0
553 -914 -550 0
-553 914 0
-553 550 0
554 -761 -731 0
-554 761 0
-554 731 0
555 -554 -700 0
-555 554 0
-555 700 0
556 -915 -553 0
-556 915 0
-556 553 0
557 -35 -19 0
-557 35 0
-557 19 0
558 -557 -32 0
-558 557 0
-558 32 0
559 -916 -556 0
-559 916 0
-559 556 0
560 -42 -711 0
-560 42 0
-560 711 0
561 -560 -43 0
-561 560 0
-561 43 0
562 -917 -559 0
-562 917 0
-562 559 0
563 -812 -705 0
-563 812 0
-563 705 0
564 -563 -764 0
-564 563 0
-564 764 0
565 -918 -562 0
-565 918 0
-565 562 0
566 -19 -817 0
-566 19 0
-566 817 0
567 -566 -45 0
-567 566 0
-567 45 0
568 -919 -565 0
-568 919 0
-568 565 0
569 -397 -712 0
-569 397 0
-569 712 0
570 -920 -568 0
-570 920 0
-570 568 0
571 -921 -1 0
-571 921 0
-571 1 0
572 -571 -810 0
-572 571 0
-572 810 0
573 -922 -570 0
-573 922 0
-573 570 0
574 -780 -21 0
-574 780 0
-574 21 0
575 -574 -38 0
-575 574 0
-575 38 0
576 -923 -573 0
-576 923 0
-576 573 0
577 -724 -699 0
-577 724 0
-577 699 0
578 -577 -770 0
-578 577 0
-578 770 0
579 -924 -576 0
-579 924 0
-579 576 0
580 -780 -748 0
-580 780 0
-580 748 0
581 -580 -6 0
-581 580 0
-581 6 0
582 -925 -579 0
-582 925 0
-582 579 0
583 -24 -703 0
-583 24 0
-583 703 0
584 -583 -720 0
-584 583 0
-584 720 0
585 -926 -582 0
-585 926 0
-585 582 0
586 -812 -28 0
-586 812 0
-586 28 0
587 -586 -4 0
-587 586 0
-587 4 0
588 -927 -585 0
-588 927 0
-588 585 0
589 -733 -32 0
-589 733 0
-589 32 0
590 -589 -700 0
-590 589 0
-590 700 0
591 -928 -588 0
-591 928 0
-591 588 0
592 -812 -21 0
-592 812 0
-592 21 0
593 -592 -6 0
-593 592 0
-593 6 0
594 -929 -591 0
-594 929 0
-594 591 0
595 -24 -706 0
-595 24 0
-595 706 0
596 -595 -14 0
-596 595 0
-596 14 0
597 -930 -594 0
-597 930 0
-597 594 0
598 -733 -22 0
-598 733 0
-598 22 0
599 -598 -6 0
-599 598 0
-599 6 0
600 -931 -597 0
-600 931 0
-600 597 0
601 -48 -738 0
-601 48 0
-601 738 0
602 -601 -761 0
-602 601 0
-602 761 0
603 -932 -600 0
-603 932 0
-603 600 0
604 -761 -41 0
-604 761 0
-604 41 0
605 -604 -720 0
-605 604 0
-605 720 0
606 -933 -603 0
-606 933 0
-606 603 0
607 -15 -7 0
-607 15 0
-607 7 0
608 -607 -757 0
-608 607 0
-608 757 0
609 -934 -606 0
-609 934 0
-609 606 0
610 -841 -4 0
-610 841 0
-610 4 0
611 -610 -45 0
-611 610 0
-611 45 0
612 -935 -609 0
-612 935 0
-612 609 0
613 -3 -697 0
-613 3 0
-613 697 0
614 -613 -761 0
-614 613 0
-614 761 0
615 -936 -612 0
-615 936 0
-615 612 0
616 -776 -744 0
-616 776 0
-616 744 0
617 -616 -712 0
-617 616 0
-617 712 0
618 -937 -615 0
-618 937 0
-618 615 0
619 -39 -737 0
-619 39 0
-619 737 0
620 -619 -699 0
-620 619 0
-620 699 0
621 -938 -618 0
-621 938 0
-621 618 0
622 -42 -820 0
-622 42 0
-622 820 0
623 -622 -34 0
-623 622 0
-623 34 0
624 -939 -621 0
-624 939 0
-624 621 0
625 -711 -9 0
-625 711 0
-625 9 0
626 -625 -46 0
-626 625 0
-626 46 0
627 -940 -624 0
-627 940 0
-627 624 0
628 -718 -738 0
-628 718 0
-628 738 0
629 -628 -33 0
-629 628 0
-629 33 0
630 -941 -627 0
-630 941 0
-630 627 0
631 -44 -7 0
-631 44 0
-631 7 0
632 -631 -720 0
-632 631 0
-632 720 0
633 -942 -630 0
-633 942 0
-633 630 0
634 -744 -21 0
-634 744 0
-634 21 0
635 -634 -45 0
-635 634 0
-635 45 0
636 -943 -633 0
-636 943 0
-636 633 0
637 -737 -7 0
-637 737 0
-637 7 0
638 -637 -41 0
-638 637 0
-638 41 0
639 -944 -636 0
-639 944 0
-639 636 0
640 -41 -17 0
-640 41 0
-640 17 0
641 -640 -45 0
-641 640 0
-641 45 0
642 -945 -639 0
-642 945 0
-642 639 0
643 -104 -700 0
-643 104 0
-643 700 0
644 -946 -642 0
-644 946 0
-644 642 0
645 -744 -37 0
-645 744 0
-645 37 0
646 -645 -32 0
-646 645 0
-646 32 0
647 -947 -644 0
-647 947 0
-647 644 0
648 -733 -728 0
-648 733 0
-648 728 0
649 -648 -38 0
-649 648 0
-649 38 0
650 -948 -647 0
-650 948 0
-650 647 0
651 -733 -24 0
-651 733 0
-651 24 0
652 -651 -757 0
-652 651 0
-652 757 0
653 -949 -650 0
-653 949 0
-653 650 0
654 -161 -785 0
-654 161 0
-654 785 0
655 -950 -653 0
-655 950 0
-655 653 0
656 -26 -9 0
-656 26 0
-656 9 0
657 -656 -712 0
-657 656 0
-657 712 0
658 -951 -655 0
-658 951 0
-658 655 0
659 -44 -724 0
-659 44 0
-659 724 0
660 -659 -780 0
-660 659 0
-660 780 0
661 -952 -658 0
-661 952 0
-661 658 0
662 -577 -764 0
-662 577 0
-662 764 0
663 -953 -661 0
-663 953 0
-663 661 0
664 -48 -7 0
-664 48 0
-664 7 0
665 -664 -761 0
-665 664 0
-665 761 0
666 -954 -663 0
-666 954 0
-666 663 0
667 -744 -717 0
-667 744 0
-667 717 0
668 -667 -812 0
-668 667 0
-668 812 0
669 -955 -666 0
-669 955 0
-669 666 0
670 -717 -699 0
-670 717 0
-670 699 0
671 -670 -789 0
-671 670 0
-671 789 0
672 -956 -669 0
-672 956 0
-672 669 0
673 -731 -1 0
-673 731 0
-673 1 0
674 -673 -25 0
-674 673 0
-674 25 0
675 -957 -672 0
-675 957 0
-675 672 0
676 -776 -700 0
-676 776 0
-676 700 0
677 -676 -836 0
-677 676 0
-677 836 0
678 -958 -675 0
-678 958 0
-678 675 0
679 -766 -699 0
-679 766 0
-679 699 0
680 -679 -810 0
-680 679 0
-680 810 0
681 -959 -678 0
-681 959 0
-681 678 0
682 -785 -24 0
-682 785 0
-682 24 0
683 -682 -699 0
-683 682 0
-683 699 0
684 -960 -681 0
-684 960 0
-684 681 0
685 -34 -30 0
-685 34 0
-685 30 0
686 -685 -720 0
-686 685 0
-686 720 0
687 -961 -684 0
-687 961 0
-687 684 0
688 -921 -738 0
-688 921 0
-688 738 0
689 -688 -712 0
-689 688 0
-689 712 0
690 -962 -687 0
-690 962 0
-690 687 0
691 -812 -703 0
-691 812 0
-691 703 0
692 -691 -34 0
-692 691 0
-692 34 0
693 -963 -690 0
-693 963 0
-693 690 0
694 -37 -711 0
-694 37 0
-694 711 0
695 -694 -712 0
-695 694 0
-695 712 0
696 -964 -693 0
-696 964 0
-696 693 0
-697 -2 0
697 2 0
-698 -3 0
698 3 0
-699 -4 0
699 4 0
-700 -6 0
700 6 0
-701 -54 0
701 54 0
-702 -52 0
702 52 0
-703 -8 0
703 8 0
-704 -57 0
704 57 0
-705 -10 0
705 10 0
-706 -12 0
706 12 0
-707 -60 0
707 60 0
-708 -13 0
708 13 0
-709 -15 0
709 15 0
-710 -63 0
710 63 0
-711 -17 0
711 17 0
-712 -18 0
712 18 0
-713 -66 0
713 66 0
-714 -69 0
714 69 0
-715 -72 0
715 72 0
-716 -75 0
716 75 0
-717 -23 0
717 23 0
-718 -24 0
718 24 0
-719 -78 0
719 78 0
-720 -25 0
720 25 0
-721 -81 0
721 81 0
-722 -84 0
722 84 0
-723 -87 0
723 87 0
-724 -27 0
724 27 0
-725 -90 0
725 90 0
-726 -28 0
726 28 0
-727 -93 0
727 93 0
-728 -30 0
728 30 0
-729 -96 0
729 96 0
-730 -99 0
730 99 0
-731 -29 0
731 29 0
-732 -102 0
732 102 0
-733 -34 0
733 34 0
-734 -105 0
734 105 0
-735 -108 0
735 108 0
-736 -111 0
736 111 0
-737 -19 0
737 19 0
-738 -1 0
738 1 0
-739 -114 0
739 114 0
-740 -117 0
740 117 0
-741 -120 0
741 120 0
-742 -123 0
742 123 0
-743 -126 0
743 126 0
-744 -39 0
744 39 0
-745 -7 0
745 7 0
-746 -40 0
746 40 0
-747 -129 0
747 129 0
-748 -5 0
748 5 0
-749 -132 0
749 132 0
-750 -41 0
750 41 0
-751 -135 0
751 135 0
-752 -138 0
752 138 0
-753 -141 0
753 141 0
-754 -42 0
754 42 0
-755 -144 0
755 144 0
-756 -147 0
756 147 0
-757 -43 0
757 43 0
-758 -150 0
758 150 0
-759 -153 0
759 153 0
-760 -156 0
760 156 0
-761 -45 0
761 45 0
-762 -159 0
762 159 0
-763 -162 0
763 162 0
-764 -22 0
764 22 0
-765 -165 0
765 165 0
-766 -37 0
766 37 0
-767 -168 0
767 168 0
-768 -171 0
768 171 0
-769 -174 0
769 174 0
-770 -47 0
770 47 0
-771 -177 0
771 177 0
-772 -180 0
772 180 0
-773 -183 0
773 183 0
-774 -16 0
774 16 0
-775 -186 0
775 186 0
-776 -48 0
776 48 0
-777 -189 0
777 189 0
-778 -192 0
778 192 0
-779 -195 0
779 195 0
-780 -26 0
780 26 0
-781 -21 0
781 21 0
-782 -198 0
782 198 0
-783 -201 0
783 201 0
-784 -204 0
784 204 0
-785 -35 0
785 35 0
-786 -207 0
786 207 0
-787 -210 0
787 210 0
-788 -213 0
788 213 0
-789 -49 0
789 49 0
-790 -216 0
790 216 0
-791 -219 0
791 219 0
-792 -222 0
792 222 0
-793 -36 0
793 36 0
-794 -225 0
794 225 0
-795 -228 0
795 228 0
-796 -231 0
796 231 0
-797 -234 0
797 234 0
-798 -237 0
798 237 0
-799 -240 0
799 240 0
-800 -243 0
800 243 0
-801 -246 0
801 246 0
-802 -249 0
802 249 0
-803 -252 0
803 252 0
-804 -46 0
804 46 0
-805 -255 0
805 255 0
-806 -258 0
806 258 0
-807 -261 0
807 261 0
-808 -264 0
808 264 0
-809 -267 0
809 267 0
-810 -33 0
810 33 0
-811 -270 0
811 270 0
-812 -32 0
812 32 0
-813 -273 0
813 273 0
-814 -275 0
814 275 0
-815 -278 0
815 278 0
-816 -281 0
816 281 0
-817 -14 0
817 14 0
-818 -284 0
818 284 0
-819 -287 0
819 287 0
-820 -31 0
820 31 0
-821 -290 0
821 290 0
-822 -38 0
822 38 0
-823 -293 0
823 293 0
-824 -296 0
824 296 0
-825 -299 0
825 299 0
-826 -302 0
826 302 0
-827 -305 0
827 305 0
-828 -308 0
828 308 0
-829 -311 0
829 311 0
-830 -314 0
830 314 0
-831 -317 0
831 317 0
-832 -320 0
832 320 0
-833 -323 0
833 323 0
-834 -326 0
834 326 0
-835 -329 0
835 329 0
-836 -50 0
836 50 0
-837 -332 0
837 332 0
-838 -335 0
838 335 0
-839 -338 0
839 338 0
-840 -341 0
840 341 0
-841 -20 0
841 20 0
-842 -344 0
842 344 0
-843 -347 0
843 347 0
-844 -350 0
844 350 0
-845 -353 0
845 353 0
-846 -356 0
846 356 0
-847 -359 0
847 359 0
-848 -362 0
848 362 0
-849 -365 0
849 365 0
-850 -368 0
850 368 0
-851 -371 0
851 371 0
-852 -11 0
852 11 0
-853 -374 0
853 374 0
-854 -377 0
854 377 0
-855 -380 0
855 380 0
-856 -383 0
856 383 0
-857 -386 0
857 386 0
-858 -389 0
858 389 0
-859 -392 0
859 392 0
-860 -395 0
860 395 0
-861 -398 0
861 398 0
-862 -401 0
862 401 0
-863 -404 0
863 404 0
-864 -407 0
864 407 0
-865 -410 0
865 410 0
-866 -413 0
866 413 0
-867 -416 0
867 416 0
-868 -419 0
868 419 0
-869 -422 0
869 422 0
-870 -425 0
870 425 0
-871 -428 0
871 428 0
-872 -431 0
872 431 0
-873 -434 0
873 434 0
-874 -437 0
874 437 0
-875 -440 0
875 440 0
-876 -443 0
876 443 0
-877 -446 0
877 446 0
-878 -449 0
878 449 0
-879 -452 0
879 452 0
-880 -455 0
880 455 0
-881 -458 0
881 458 0
-882 -461 0
882 461 0
-883 -463 0
883 463 0
-884 -466 0
884 466 0
-885 -469 0
885 469 0
-886 -472 0
886 472 0
-887 -475 0
887 475 0
-888 -478 0
888 478 0
-889 -481 0
889 481 0
-890 -484 0
890 484 0
-891 -487 0
891 487 0
-892 -490 0
892 490 0
-893 -493 0
893 493 0
-894 -496 0
894 496 0
-895 -499 0
895 499 0
-896 -502 0
896 502 0
-897 -505 0
897 505 0
-898 -508 0
898 508 0
-899 -510 0
899 510 0
-900 -44 0
900 44 0
-901 -513 0
901 513 0
-902 -516 0
902 516 0
-903 -519 0
903 519 0
-904 -522 0
904 522 0
-905 -525 0
905 525 0
-906 -528 0
906 528 0
-907 -531 0
907 531 0
-908 -534 0
908 534 0
-909 -537 0
909 537 0
-910 -540 0
910 540 0
-911 -543 0
911 543 0
-912 -546 0
912 546 0
-913 -549 0
913 549 0
-914 -552 0
914 552 0
-915 -555 0
915 555 0
-916 -558 0
916 558 0
-917 -561 0
917 561 0
-918 -564 0
918 564 0
-919 -567 0
919 567 0
-920 -569 0
920 569 0
-921 -9 0
921 9 0
-922 -572 0
922 572 0
-923 -575 0
923 575 0
-924 -578 0
924 578 0
-925 -581 0
925 581 0
-926 -584 0
926 584 0
-927 -587 0
927 587 0
-928 -590 0
928 590 0
-929 -593 0
929 593 0
-930 -596 0
930 596 0
-931 -599 0
931 599 0
-932 -602 0
932 602 0
-933 -605 0
933 605 0
-934 -608 0
934 608 0
-935 -611 0
935 611 0
-936 -614 0
936 614 0
-937 -617 0
937 617 0
-938 -620 0
938 620 0
-939 -623 0
939 623 0
-940 -626 0
940 626 0
-941 -629 0
941 629 0
-942 -632 0
942 632 0
-943 -635 0
943 635 0
-944 -638 0
944 638 0
-945 -641 0
945 641 0
-946 -643 0
946 643 0
-947 -646 0
947 646 0
-948 -649 0
948 649 0
-949 -652 0
949 652 0
-950 -654 0
950 654 0
-951 -657 0
951 657 0
-952 -660 0
952 660 0
-953 -662 0
953 662 0
-954 -665 0
954 665 0
-955 -668 0
955 668 0
-956 -671 0
956 671 0
-957 -674 0
957 674 0
-958 -677 0
958 677 0
-959 -680 0
959 680 0
-960 -683 0
960 683 0
-961 -686 0
961 686 0
-962 -689 0
962 689 0
-963 -692 0
963 692 0
-964 -695 0
964 695 0
696 0
